33
1.0
5.001676 0.000000 0.000000
0.000000 8.601477 0.000000
0.000000 0.000000 9.277844
Al Ga O
8 8 24
direct
0.171465 0.154299 0.000962 Al
0.182096 0.836752 0.804623 Al
0.317904 0.336752 0.304623 Al
0.328535 0.654299 0.500962 Al
0.671465 0.345701 0.000962 Al
0.682096 0.663248 0.804623 Al
0.817904 0.163248 0.304623 Al
0.828535 0.845701 0.500962 Al
0.169382 0.467835 0.798467 Ga
0.187885 0.149230 0.583632 Ga
0.312115 0.649230 0.083632 Ga
0.330618 0.967835 0.298467 Ga
0.669382 0.032165 0.798467 Ga
0.687885 0.350770 0.583632 Ga
0.812115 0.850770 0.083632 Ga
0.830618 0.532165 0.298467 Ga
0.005987 0.326792 0.942306 O
0.009082 0.010198 0.430145 O
0.020457 0.677503 0.918071 O
0.158404 0.829343 0.170127 O
0.147392 0.164550 0.194665 O
0.160141 0.492818 0.201391 O
0.339859 0.992818 0.701391 O
0.352608 0.664550 0.694665 O
0.341596 0.329343 0.670127 O
0.479543 0.177503 0.418071 O
0.490918 0.510198 0.930145 O
0.494013 0.826792 0.442306 O
0.505987 0.173208 0.942306 O
0.509082 0.489802 0.430145 O
0.520457 0.822497 0.918071 O
0.658404 0.670657 0.170127 O
0.647392 0.335450 0.194665 O
0.660141 0.007182 0.201391 O
0.839859 0.507182 0.701391 O
0.852608 0.835450 0.694665 O
0.841596 0.170657 0.670127 O
0.979543 0.322497 0.418071 O
0.990918 0.989802 0.930145 O
0.994013 0.673208 0.442306 O
