62
1.0
4.889231 0.000000 0.000000
0.000000 5.009529 0.000000
0.000000 0.000000 7.448018
Al Ga O
4 4 12
direct
0.000000 0.500000 0.000000 Al
0.000000 0.500000 0.500000 Al
0.500000 0.000000 0.000000 Al
0.500000 0.000000 0.500000 Al
0.014015 0.957043 0.750000 Ga
0.485985 0.457043 0.750000 Ga
0.514015 0.542957 0.250000 Ga
0.985985 0.042957 0.250000 Ga
0.132061 0.420152 0.250000 O
0.181007 0.185489 0.571448 O
0.181007 0.185489 0.928552 O
0.318993 0.685489 0.571448 O
0.318993 0.685489 0.928552 O
0.367939 0.920152 0.250000 O
0.632061 0.079848 0.750000 O
0.681007 0.314511 0.071448 O
0.681007 0.314511 0.428552 O
0.818993 0.814511 0.071448 O
0.818993 0.814511 0.428552 O
0.867939 0.579848 0.750000 O
