139
1.0
4.038228 0.000000 0.000000
0.000000 4.038228 0.000000
0.000000 0.000000 8.903998
Al Ga
2 6
direct
0.000000 0.000000 0.000000 Al
0.500000 0.500000 0.500000 Al
0.000000 0.500000 0.250000 Ga
0.500000 0.000000 0.250000 Ga
0.500000 0.500000 0.000000 Ga
0.500000 0.000000 0.750000 Ga
0.000000 0.500000 0.750000 Ga
0.000000 0.000000 0.500000 Ga
